Route #1: 34 52 54 19 35 8 46
Route #2: 27 13 57 15 37 20 60 36
Route #3: 47 21 61 28 2
Route #4: 62 22 64 42 41 43 1
Route #5: 23 56 49 24 18 55 25 31
Route #6: 39 9 50 32 44 3
Route #7: 40 12 58 10 38
Route #8: 11 59 14 53 7
Route #9: 26 17 51 16 63 33 6
Route #10: 30 48 5 29 45 4
Cost 830